results_rootrelaxation/bin012_070_022.srr.sol
solution status: optimal solution found
objective value:                     7.83952702702703
_var697_                            0.255067567567568 	(obj:0)
_var725_                            0.292229729729729 	(obj:1)
_var728_                            0.060810810810811 	(obj:0)
_var734_                            0.227195945945943 	(obj:0)
_var735_                          0.00929054054053879 	(obj:2)
_var739_                          0.00422297297297336 	(obj:1)
_var742_                            0.119932432432431 	(obj:1)
_var744_                           0.0903716216216208 	(obj:0)
_var753_                            0.148648648648648 	(obj:1)
_var760_                            0.155405405405407 	(obj:0)
_var761_                           0.0219594594594608 	(obj:1)
_var767_                            0.581081081081081 	(obj:1)
_var772_                            0.144425675675673 	(obj:1)
_var776_                            0.115709459459459 	(obj:2)
_var778_                           0.0608108108108109 	(obj:1)
_var783_                            0.121621621621622 	(obj:0)
_var784_                            0.438344594594595 	(obj:1)
_var789_                             0.11739864864865 	(obj:1)
_var791_                           0.0734797297297287 	(obj:1)
_var803_                            0.048141891891891 	(obj:0)
_var805_                             0.64695945945946 	(obj:0)
_var809_                             0.69847972972973 	(obj:1)
_var810_                            0.576013513513515 	(obj:0)
_var828_                            0.212837837837837 	(obj:1)
_var829_                            0.532094594594595 	(obj:0)
_var834_                            0.504222972972972 	(obj:1)
_var836_                            0.135135135135136 	(obj:1)
_var837_                            0.561655405405405 	(obj:0)
_var839_                            0.211148648648649 	(obj:1)
_var848_                            0.137668918918919 	(obj:2)
_var853_                           0.0903716216216208 	(obj:2)
_var854_                           0.0895270270270276 	(obj:1)
_var856_                           0.0202702702702704 	(obj:1)
_var859_                            0.145270270270269 	(obj:1)
_var867_                           0.0244932432432411 	(obj:1)
_var868_                            0.253378378378378 	(obj:0)
_var874_                           0.0751689189189196 	(obj:2)
_var877_                            0.101351351351352 	(obj:1)
_var878_                            0.414695945945945 	(obj:1)
_var884_                           0.0101351351351356 	(obj:1)
_var888_                           0.0692567567567581 	(obj:1)
_var889_                            0.173141891891894 	(obj:1)
_var890_                            0.256756756756756 	(obj:2)
_var894_                            0.121621621621621 	(obj:1)
_var897_                           0.0447635135135124 	(obj:1)
_var901_                            0.211148648648649 	(obj:1)
_var902_                             0.13766891891892 	(obj:1)
_var903_                            0.218750000000001 	(obj:1)
_var906_                            0.146959459459462 	(obj:1)
_var907_                           0.0101351351351373 	(obj:2)
_var912_                             0.28293918918919 	(obj:0)
_var914_                             0.17820945945946 	(obj:1)
_var915_                           0.0135135135135156 	(obj:2)
_var922_                            0.080236486486486 	(obj:1)
_var926_                            0.164695945945946 	(obj:1)
_var929_                           0.0954391891891897 	(obj:1)
_var931_                           0.0346283783783795 	(obj:0)
_var932_                           0.0548986486486483 	(obj:1)
_var933_                           0.0202702702702704 	(obj:2)
_var934_                            0.021114864864864 	(obj:0)
_var935_                           0.0684121621621614 	(obj:1)
_var937_                           0.0219594594594601 	(obj:0)
_var939_                           0.0118243243243241 	(obj:1)
_var942_                           0.0346283783783764 	(obj:1)
