results_rootrelaxation/bin012_070_022.srr.log
SCIP version 8.0.3.5 [precision: 8 byte] [memory: block] [mode: optimized] [LP solver: Soplex 6.0.1.3] [GitHash: 438792519e]
Copyright (c) 2002-2023 Zuse Institute Berlin (ZIB)

External libraries: 
  Readline 8.1         GNU library for command line editing (gnu.org/s/readline)
  Soplex 6.0.1.3       Linear Programming Solver developed at Zuse Institute Berlin (soplex.zib.de) [GitHash: 713be0fe]
  CppAD 20180000.0     Algorithmic Differentiation of C++ algorithms developed by B. Bell (github.com/coin-or/CppAD)
  ZLIB 1.2.11          General purpose compression library by J. Gailly and M. Adler (zlib.net)
  bliss 0.77           Computing Graph Automorphism Groups by T. Junttila and P. Kaski (www.tcs.hut.fi/Software/bliss/)

user parameter file <scip.set> not found - using default parameters

srr/relaxation = TRUE

read problem <instances/bin012_070_022.srr>
============

Original problem: 
original problem has 0 variables (0 bin, 0 int, 0 impl, 0 cont) and 77 constraints

presolving:
presolving (1 rounds: 1 fast, 1 medium, 1 exhaustive):
 0 deleted vars, 0 deleted constraints, 0 added constraints, 0 tightened bounds, 0 added holes, 0 changed sides, 0 changed coefficients
 0 implications, 0 cliques
presolved problem has 0 variables (0 bin, 0 int, 0 impl, 0 cont) and 77 constraints
     77 constraints of type <linear>
Presolving Time: 0.00

 time | node  | left  |LP iter|LP it/n|mem/heur|mdpt |vars |cons |rows |cuts |sepa|confs|strbr|  dualbound   | primalbound  |  gap   | compl. 
  0.0s|     1 |     0 |     1 |     - |   710k |   0 |   1 |  77 |  77 |   0 |  0 |   0 |   0 |      --      |      --      |    Inf | unknown
r 0.0s|     1 |     0 |   752 |     - |simplero|   0 | 677 |  77 |  77 |   0 |  0 |   0 |   0 |      --      | 2.741604e+01 |    Inf | unknown
r 0.0s|     1 |     0 |   774 |     - |simplero|   0 | 688 |  77 |  77 |   0 |  0 |   0 |   0 |      --      | 2.667469e+01 |    Inf | unknown
r 0.1s|     1 |     0 |   830 |     - |simplero|   0 | 699 |  77 |  77 |   0 |  0 |   0 |   0 |      --      | 2.446231e+01 |    Inf | unknown
r 0.1s|     1 |     0 |   892 |     - |simplero|   0 | 710 |  77 |  77 |   0 |  0 |   0 |   0 |      --      | 2.262321e+01 |    Inf | unknown
r 0.1s|     1 |     0 |   958 |     - |simplero|   0 | 721 |  77 |  77 |   0 |  0 |   0 |   0 |      --      | 2.145825e+01 |    Inf | unknown
r 0.1s|     1 |     0 |  1038 |     - |simplero|   0 | 732 |  77 |  77 |   0 |  0 |   0 |   0 |      --      | 1.902049e+01 |    Inf | unknown
r 0.1s|     1 |     0 |  1096 |     - |simplero|   0 | 743 |  77 |  77 |   0 |  0 |   0 |   0 |      --      | 1.670988e+01 |    Inf | unknown
r 0.1s|     1 |     0 |  1168 |     - |simplero|   0 | 754 |  77 |  77 |   0 |  0 |   0 |   0 |      --      | 1.511183e+01 |    Inf | unknown
r 0.1s|     1 |     0 |  1204 |     - |simplero|   0 | 765 |  77 |  77 |   0 |  0 |   0 |   0 |      --      | 1.383333e+01 |    Inf | unknown
r 0.1s|     1 |     0 |  1220 |     - |simplero|   0 | 765 |  77 |  77 |   0 |  0 |   0 |   0 |      --      | 1.357541e+01 |    Inf | unknown
r 0.1s|     1 |     0 |  1257 |     - |simplero|   0 | 776 |  77 |  77 |   0 |  0 |   0 |   0 |      --      | 1.291516e+01 |    Inf | unknown
r 0.1s|     1 |     0 |  1268 |     - |simplero|   0 | 776 |  77 |  77 |   0 |  0 |   0 |   0 |      --      | 1.288392e+01 |    Inf | unknown
r 0.1s|     1 |     0 |  1271 |     - |simplero|   0 | 776 |  77 |  77 |   0 |  0 |   0 |   0 |      --      | 1.288343e+01 |    Inf | unknown
r 0.1s|     1 |     0 |  1310 |     - |simplero|   0 | 787 |  77 |  77 |   0 |  0 |   0 |   0 |      --      | 1.182462e+01 |    Inf | unknown
 time | node  | left  |LP iter|LP it/n|mem/heur|mdpt |vars |cons |rows |cuts |sepa|confs|strbr|  dualbound   | primalbound  |  gap   | compl. 
r 0.1s|     1 |     0 |  1324 |     - |simplero|   0 | 787 |  77 |  77 |   0 |  0 |   0 |   0 |      --      | 1.175786e+01 |    Inf | unknown
r 0.1s|     1 |     0 |  1334 |     - |simplero|   0 | 787 |  77 |  77 |   0 |  0 |   0 |   0 |      --      | 1.173814e+01 |    Inf | unknown
r 0.1s|     1 |     0 |  1361 |     - |simplero|   0 | 798 |  77 |  77 |   0 |  0 |   0 |   0 |      --      | 1.124363e+01 |    Inf | unknown
r 0.1s|     1 |     0 |  1382 |     - |simplero|   0 | 798 |  77 |  77 |   0 |  0 |   0 |   0 |      --      | 1.116509e+01 |    Inf | unknown
r 0.1s|     1 |     0 |  1384 |     - |simplero|   0 | 798 |  77 |  77 |   0 |  0 |   0 |   0 |      --      | 1.116229e+01 |    Inf | unknown
r 0.1s|     1 |     0 |  1421 |     - |simplero|   0 | 809 |  77 |  77 |   0 |  0 |   0 |   0 |      --      | 1.062632e+01 |    Inf | unknown
r 0.1s|     1 |     0 |  1424 |     - |simplero|   0 | 809 |  77 |  77 |   0 |  0 |   0 |   0 |      --      | 1.062515e+01 |    Inf | unknown
r 0.1s|     1 |     0 |  1427 |     - |simplero|   0 | 809 |  77 |  77 |   0 |  0 |   0 |   0 |      --      | 1.062442e+01 |    Inf | unknown
r 0.1s|     1 |     0 |  1428 |     - |simplero|   0 | 809 |  77 |  77 |   0 |  0 |   0 |   0 |      --      | 1.062434e+01 |    Inf | unknown
r 0.1s|     1 |     0 |  1480 |     - |simplero|   0 | 820 |  77 |  77 |   0 |  0 |   0 |   0 |      --      | 9.983863e+00 |    Inf | unknown
r 0.1s|     1 |     0 |  1489 |     - |simplero|   0 | 820 |  77 |  77 |   0 |  0 |   0 |   0 |      --      | 9.968728e+00 |    Inf | unknown
r 0.1s|     1 |     0 |  1492 |     - |simplero|   0 | 820 |  77 |  77 |   0 |  0 |   0 |   0 |      --      | 9.966207e+00 |    Inf | unknown
r 0.1s|     1 |     0 |  1522 |     - |simplero|   0 | 831 |  77 |  77 |   0 |  0 |   0 |   0 |      --      | 9.477271e+00 |    Inf | unknown
r 0.1s|     1 |     0 |  1536 |     - |simplero|   0 | 831 |  77 |  77 |   0 |  0 |   0 |   0 |      --      | 9.433129e+00 |    Inf | unknown
r 0.1s|     1 |     0 |  1541 |     - |simplero|   0 | 831 |  77 |  77 |   0 |  0 |   0 |   0 |      --      | 9.421946e+00 |    Inf | unknown
 time | node  | left  |LP iter|LP it/n|mem/heur|mdpt |vars |cons |rows |cuts |sepa|confs|strbr|  dualbound   | primalbound  |  gap   | compl. 
r 0.1s|     1 |     0 |  1573 |     - |simplero|   0 | 842 |  77 |  77 |   0 |  0 |   0 |   0 |      --      | 9.026860e+00 |    Inf | unknown
r 0.1s|     1 |     0 |  1587 |     - |simplero|   0 | 842 |  77 |  77 |   0 |  0 |   0 |   0 |      --      | 8.941493e+00 |    Inf | unknown
r 0.1s|     1 |     0 |  1594 |     - |simplero|   0 | 842 |  77 |  77 |   0 |  0 |   0 |   0 |      --      | 8.927834e+00 |    Inf | unknown
r 0.1s|     1 |     0 |  1619 |     - |simplero|   0 | 853 |  77 |  77 |   0 |  0 |   0 |   0 |      --      | 8.696451e+00 |    Inf | unknown
r 0.1s|     1 |     0 |  1623 |     - |simplero|   0 | 853 |  77 |  77 |   0 |  0 |   0 |   0 |      --      | 8.695120e+00 |    Inf | unknown
  0.1s|     1 |     0 |  1625 |     - |  4325k |   0 | 853 |  77 |  77 |   0 |  0 |   0 |   0 |      --      | 8.695120e+00 |    Inf | unknown
r 0.1s|     1 |     0 |  1625 |     - |simplero|   0 | 853 |  77 |  77 |   0 |  0 |   0 |   0 |      --      | 8.694718e+00 |    Inf | unknown
r 0.1s|     1 |     0 |  1647 |     - |simplero|   0 | 864 |  77 |  77 |   0 |  0 |   0 |   0 |      --      | 8.455844e+00 |    Inf | unknown
r 0.1s|     1 |     0 |  1652 |     - |simplero|   0 | 864 |  77 |  77 |   0 |  0 |   0 |   0 |      --      | 8.450768e+00 |    Inf | unknown
r 0.1s|     1 |     0 |  1677 |     - |simplero|   0 | 874 |  77 |  77 |   0 |  0 |   0 |   0 |      --      | 8.324826e+00 |    Inf | unknown
r 0.1s|     1 |     0 |  1700 |     - |simplero|   0 | 885 |  77 |  77 |   0 |  0 |   0 |   0 |      --      | 8.202580e+00 |    Inf | unknown
r 0.1s|     1 |     0 |  1701 |     - |simplero|   0 | 885 |  77 |  77 |   0 |  0 |   0 |   0 |      --      | 8.202105e+00 |    Inf | unknown
r 0.1s|     1 |     0 |  1723 |     - |simplero|   0 | 896 |  77 |  77 |   0 |  0 |   0 |   0 |      --      | 8.112242e+00 |    Inf | unknown
r 0.1s|     1 |     0 |  1728 |     - |simplero|   0 | 896 |  77 |  77 |   0 |  0 |   0 |   0 |      --      | 8.105298e+00 |    Inf | unknown
r 0.1s|     1 |     0 |  1730 |     - |simplero|   0 | 896 |  77 |  77 |   0 |  0 |   0 |   0 |      --      | 8.102134e+00 |    Inf | unknown
 time | node  | left  |LP iter|LP it/n|mem/heur|mdpt |vars |cons |rows |cuts |sepa|confs|strbr|  dualbound   | primalbound  |  gap   | compl. 
r 0.1s|     1 |     0 |  1755 |     - |simplero|   0 | 904 |  77 |  77 |   0 |  0 |   0 |   0 |      --      | 7.980769e+00 |    Inf | unknown
r 0.1s|     1 |     0 |  1767 |     - |simplero|   0 | 913 |  77 |  77 |   0 |  0 |   0 |   0 |      --      | 7.915254e+00 |    Inf | unknown
r 0.1s|     1 |     0 |  1771 |     - |simplero|   0 | 913 |  77 |  77 |   0 |  0 |   0 |   0 |      --      | 7.911765e+00 |    Inf | unknown
r 0.1s|     1 |     0 |  1792 |     - |simplero|   0 | 921 |  77 |  77 |   0 |  0 |   0 |   0 |      --      | 7.877794e+00 |    Inf | unknown
r 0.1s|     1 |     0 |  1796 |     - |simplero|   0 | 921 |  77 |  77 |   0 |  0 |   0 |   0 |      --      | 7.876367e+00 |    Inf | unknown
r 0.1s|     1 |     0 |  1807 |     - |simplero|   0 | 927 |  77 |  77 |   0 |  0 |   0 |   0 |      --      | 7.863636e+00 |    Inf | unknown
r 0.1s|     1 |     0 |  1822 |     - |simplero|   0 | 933 |  77 |  77 |   0 |  0 |   0 |   0 |      --      | 7.848660e+00 |    Inf | unknown
r 0.1s|     1 |     0 |  1832 |     - |simplero|   0 | 939 |  77 |  77 |   0 |  0 |   0 |   0 |      --      | 7.840000e+00 |    Inf | unknown
r 0.1s|     1 |     0 |  1834 |     - |simplero|   0 | 942 |  77 |  77 |   0 |  0 |   0 |   0 |      --      | 7.839827e+00 |    Inf | unknown
r 0.1s|     1 |     0 |  1835 |     - |simplero|   0 | 943 |  77 |  77 |   0 |  0 |   0 |   0 |      --      | 7.839527e+00 |    Inf | unknown
  0.1s|     1 |     0 |  1835 |     - |  4730k |   0 | 943 |  77 |  77 |   0 |  0 |   0 |   0 | 7.839527e+00 | 7.839527e+00 |   0.00%| unknown
  0.1s|     1 |     0 |  1835 |     - |  4730k |   0 | 943 |  77 |  77 |   0 |  0 |   0 |   0 | 7.839527e+00 | 7.839527e+00 |   0.00%| unknown

SCIP Status        : problem is solved [optimal solution found]
Solving Time (sec) : 0.12
Solving Nodes      : 1
Primal Bound       : +7.83952702702703e+00 (53 solutions)
Dual Bound         : +7.83952702702703e+00
Gap                : 0.00 %

written transformed problem to file <results_rootrelaxation/bin012_070_022.srr.lp>
written transformed problem to file <results_rootrelaxation/bin012_070_022.srr.cip>

written solution information to file <results_rootrelaxation/bin012_070_022.srr.sol>



